8176
49, 1, 22, 18, 31, 23, 20, 50, 44, 34, 36, 35, 37, 39, 40, 38, 5, 6, 4, 25, 12, 28, 26, 47, 27, 13, 14, 52, 11, 51, 33, 43, 15, 48, 24, 46, 16, 29, 30, 2, 7, 42, 21, 17, 3, 41, 8, 9, 10, 19, 45, 32
